NAME : eil51.66.548.tour
COMMENT : Length = 548
COMMENT : Found by LKH [Keld Helsgaun] Tue Dec 11 00:02:49 2018
TYPE : TOUR
DIMENSION : 54
TOUR_SECTION
1
47
12
39
17
3
30
21
36
37
4
49
28
53
33
2
23
29
32
9
27
8
24
44
25
7
54
15
26
14
42
41
20
43
19
52
48
5
18
45
38
6
50
11
35
51
22
10
31
40
34
46
16
13
-1
EOF
